c strEdges: 189  randomEdges: 441 
c degrees:  2  3 
c girth: 10 max: 8.032766  
c Hgirth mixed MAXCUT instance
c generated from an undirected graph
c to solve unweighted MaxCut
p cnf 140 1260
90 27 0
-90 -27 0
90 83 0
-90 -83 0
28 92 0
-28 -92 0
28 40 0
-28 -40 0
1 133 0
-1 -133 0
1 10 0
-1 -10 0
1 78 0
-1 -78 0
126 129 0
-126 -129 0
126 9 0
-126 -9 0
126 122 0
-126 -122 0
2 80 0
-2 -80 0
2 96 0
-2 -96 0
2 75 0
-2 -75 0
86 127 0
-86 -127 0
86 10 0
-86 -10 0
56 18 0
-56 -18 0
56 25 0
-56 -25 0
56 101 0
-56 -101 0
76 83 0
-76 -83 0
76 103 0
-76 -103 0
72 106 0
-72 -106 0
72 41 0
-72 -41 0
72 127 0
-72 -127 0
52 19 0
-52 -19 0
52 110 0
-52 -110 0
52 26 0
-52 -26 0
125 108 0
-125 -108 0
125 129 0
-125 -129 0
125 101 0
-125 -101 0
29 131 0
-29 -131 0
29 50 0
-29 -50 0
29 27 0
-29 -27 0
77 32 0
-77 -32 0
77 139 0
-77 -139 0
7 63 0
-7 -63 0
7 57 0
-7 -57 0
7 24 0
-7 -24 0
118 69 0
-118 -69 0
118 25 0
-118 -25 0
118 87 0
-118 -87 0
123 64 0
-123 -64 0
123 121 0
-123 -121 0
132 65 0
-132 -65 0
132 120 0
-132 -120 0
132 139 0
-132 -139 0
91 47 0
-91 -47 0
91 38 0
-91 -38 0
91 70 0
-91 -70 0
61 13 0
-61 -13 0
61 51 0
-61 -51 0
61 38 0
-61 -38 0
5 3 0
-5 -3 0
5 79 0
-5 -79 0
46 31 0
-46 -31 0
46 112 0
-46 -112 0
46 21 0
-46 -21 0
58 110 0
-58 -110 0
58 81 0
-58 -81 0
58 120 0
-58 -120 0
128 9 0
-128 -9 0
128 124 0
-128 -124 0
128 100 0
-128 -100 0
138 136 0
-138 -136 0
138 3 0
-138 -3 0
43 101 0
-43 -101 0
43 57 0
-43 -57 0
43 81 0
-43 -81 0
116 95 0
-116 -95 0
116 131 0
-116 -131 0
6 10 0
-6 -10 0
6 117 0
-6 -117 0
6 122 0
-6 -122 0
94 124 0
-94 -124 0
94 83 0
-94 -83 0
94 106 0
-94 -106 0
49 100 0
-49 -100 0
49 74 0
-49 -74 0
68 96 0
-68 -96 0
68 108 0
-68 -108 0
68 41 0
-68 -41 0
45 57 0
-45 -57 0
45 136 0
-45 -136 0
135 78 0
-135 -78 0
135 64 0
-135 -64 0
135 131 0
-135 -131 0
71 48 0
-71 -48 0
71 19 0
-71 -19 0
71 85 0
-71 -85 0
59 103 0
-59 -103 0
59 18 0
-59 -18 0
11 4 0
-11 -4 0
11 75 0
-11 -75 0
11 124 0
-11 -124 0
114 20 0
-114 -20 0
114 16 0
-114 -16 0
114 66 0
-114 -66 0
109 38 0
-109 -38 0
109 66 0
-109 -66 0
109 65 0
-109 -65 0
8 79 0
-8 -79 0
8 18 0
-8 -18 0
8 70 0
-8 -70 0
67 41 0
-67 -41 0
67 79 0
-67 -79 0
67 92 0
-67 -92 0
73 51 0
-73 -51 0
73 32 0
-73 -32 0
73 36 0
-73 -36 0
137 139 0
-137 -139 0
137 136 0
-137 -136 0
35 74 0
-35 -74 0
35 47 0
-35 -47 0
111 97 0
-111 -97 0
111 69 0
-111 -69 0
111 117 0
-111 -117 0
39 120 0
-39 -120 0
39 27 0
-39 -27 0
105 21 0
-105 -21 0
105 4 0
-105 -4 0
105 133 0
-105 -133 0
140 55 0
-140 -55 0
140 14 0
-140 -14 0
140 31 0
-140 -31 0
42 14 0
-42 -14 0
42 47 0
-42 -47 0
42 97 0
-42 -97 0
15 40 0
-15 -40 0
15 13 0
-15 -13 0
15 84 0
-15 -84 0
62 119 0
-62 -119 0
62 108 0
-62 -108 0
115 112 0
-115 -112 0
115 20 0
-115 -20 0
115 36 0
-115 -36 0
88 87 0
-88 -87 0
88 26 0
-88 -26 0
88 33 0
-88 -33 0
12 36 0
-12 -36 0
12 85 0
-12 -85 0
12 80 0
-12 -80 0
82 54 0
-82 -54 0
82 32 0
-82 -32 0
82 4 0
-82 -4 0
34 33 0
-34 -33 0
34 103 0
-34 -103 0
34 31 0
-34 -31 0
134 98 0
-134 -98 0
134 48 0
-134 -48 0
134 63 0
-134 -63 0
60 85 0
-60 -85 0
60 106 0
-60 -106 0
30 66 0
-30 -66 0
30 64 0
-30 -64 0
30 119 0
-30 -119 0
53 121 0
-53 -121 0
53 84 0
-53 -84 0
93 16 0
-93 -16 0
93 100 0
-93 -100 0
93 3 0
-93 -3 0
22 84 0
-22 -84 0
22 19 0
-22 -19 0
22 74 0
-22 -74 0
107 75 0
-107 -75 0
107 87 0
-107 -87 0
107 23 0
-107 -23 0
17 117 0
-17 -117 0
17 65 0
-17 -65 0
102 70 0
-102 -70 0
102 98 0
-102 -98 0
102 21 0
-102 -21 0
99 81 0
-99 -81 0
99 55 0
-99 -55 0
99 92 0
-99 -92 0
130 25 0
-130 -25 0
130 121 0
-130 -121 0
130 54 0
-130 -54 0
104 50 0
-104 -50 0
104 97 0
-104 -97 0
104 96 0
-104 -96 0
89 26 0
-89 -26 0
89 119 0
-89 -119 0
37 24 0
-37 -24 0
37 95 0
-37 -95 0
37 112 0
-37 -112 0
113 23 0
-113 -23 0
113 95 0
-113 -95 0
113 40 0
-113 -40 0
44 122 0
-44 -122 0
44 13 0
-44 -13 0
42 31 0
-42 -31 0
41 40 0
-41 -40 0
130 106 0
-130 -106 0
93 17 0
-93 -17 0
118 11 0
-118 -11 0
29 19 0
-29 -19 0
43 139 0
-43 -139 0
94 137 0
-94 -137 0
96 122 0
-96 -122 0
127 32 0
-127 -32 0
45 64 0
-45 -64 0
32 4 0
-32 -4 0
30 84 0
-30 -84 0
52 66 0
-52 -66 0
103 33 0
-103 -33 0
102 96 0
-102 -96 0
58 94 0
-58 -94 0
50 122 0
-50 -122 0
15 130 0
-15 -130 0
5 112 0
-5 -112 0
109 70 0
-109 -70 0
109 133 0
-109 -133 0
55 26 0
-55 -26 0
53 124 0
-53 -124 0
109 69 0
-109 -69 0
115 34 0
-115 -34 0
21 75 0
-21 -75 0
73 69 0
-73 -69 0
13 24 0
-13 -24 0
57 121 0
-57 -121 0
123 94 0
-123 -94 0
15 9 0
-15 -9 0
134 30 0
-134 -30 0
2 22 0
-2 -22 0
138 22 0
-138 -22 0
2 59 0
-2 -59 0
45 89 0
-45 -89 0
90 11 0
-90 -11 0
73 66 0
-73 -66 0
9 20 0
-9 -20 0
104 127 0
-104 -127 0
130 85 0
-130 -85 0
140 110 0
-140 -110 0
131 98 0
-131 -98 0
68 93 0
-68 -93 0
57 98 0
-57 -98 0
28 10 0
-28 -10 0
95 97 0
-95 -97 0
36 16 0
-36 -16 0
58 4 0
-58 -4 0
47 33 0
-47 -33 0
105 20 0
-105 -20 0
33 26 0
-33 -26 0
135 109 0
-135 -109 0
8 131 0
-8 -131 0
91 107 0
-91 -107 0
5 128 0
-5 -128 0
5 9 0
-5 -9 0
100 40 0
-100 -40 0
104 40 0
-104 -40 0
116 17 0
-116 -17 0
18 131 0
-18 -131 0
18 100 0
-18 -100 0
47 110 0
-47 -110 0
77 128 0
-77 -128 0
72 113 0
-72 -113 0
37 13 0
-37 -13 0
135 11 0
-135 -11 0
140 92 0
-140 -92 0
80 3 0
-80 -3 0
32 98 0
-32 -98 0
1 131 0
-1 -131 0
88 18 0
-88 -18 0
6 23 0
-6 -23 0
100 14 0
-100 -14 0
49 93 0
-49 -93 0
6 11 0
-6 -11 0
58 44 0
-58 -44 0
139 75 0
-139 -75 0
15 120 0
-15 -120 0
109 34 0
-109 -34 0
131 3 0
-131 -3 0
44 32 0
-44 -32 0
42 37 0
-42 -37 0
114 82 0
-114 -82 0
91 8 0
-91 -8 0
120 33 0
-120 -33 0
9 117 0
-9 -117 0
130 41 0
-130 -41 0
48 66 0
-48 -66 0
7 60 0
-7 -60 0
80 112 0
-80 -112 0
111 100 0
-111 -100 0
88 50 0
-88 -50 0
59 63 0
-59 -63 0
1 54 0
-1 -54 0
19 57 0
-19 -57 0
18 50 0
-18 -50 0
7 21 0
-7 -21 0
82 127 0
-82 -127 0
98 121 0
-98 -121 0
115 66 0
-115 -66 0
110 120 0
-110 -120 0
78 16 0
-78 -16 0
109 74 0
-109 -74 0
110 50 0
-110 -50 0
65 139 0
-65 -139 0
106 33 0
-106 -33 0
34 32 0
-34 -32 0
133 48 0
-133 -48 0
107 64 0
-107 -64 0
139 97 0
-139 -97 0
38 66 0
-38 -66 0
42 106 0
-42 -106 0
43 122 0
-43 -122 0
61 114 0
-61 -114 0
137 131 0
-137 -131 0
72 71 0
-72 -71 0
64 51 0
-64 -51 0
21 25 0
-21 -25 0
38 55 0
-38 -55 0
68 34 0
-68 -34 0
19 122 0
-19 -122 0
132 10 0
-132 -10 0
45 75 0
-45 -75 0
73 34 0
-73 -34 0
124 96 0
-124 -96 0
18 32 0
-18 -32 0
125 91 0
-125 -91 0
5 136 0
-5 -136 0
137 66 0
-137 -66 0
132 91 0
-132 -91 0
60 27 0
-60 -27 0
45 53 0
-45 -53 0
56 43 0
-56 -43 0
59 53 0
-59 -53 0
134 102 0
-134 -102 0
65 50 0
-65 -50 0
116 65 0
-116 -65 0
59 8 0
-59 -8 0
68 101 0
-68 -101 0
86 55 0
-86 -55 0
34 112 0
-34 -112 0
126 15 0
-126 -15 0
43 137 0
-43 -137 0
44 98 0
-44 -98 0
101 54 0
-101 -54 0
92 13 0
-92 -13 0
5 53 0
-5 -53 0
58 31 0
-58 -31 0
92 112 0
-92 -112 0
94 39 0
-94 -39 0
139 36 0
-139 -36 0
47 97 0
-47 -97 0
47 50 0
-47 -50 0
134 136 0
-134 -136 0
91 50 0
-91 -50 0
139 14 0
-139 -14 0
73 137 0
-73 -137 0
125 131 0
-125 -131 0
7 14 0
-7 -14 0
45 95 0
-45 -95 0
11 12 0
-11 -12 0
131 41 0
-131 -41 0
20 119 0
-20 -119 0
128 67 0
-128 -67 0
15 139 0
-15 -139 0
69 78 0
-69 -78 0
126 109 0
-126 -109 0
43 133 0
-43 -133 0
35 57 0
-35 -57 0
115 24 0
-115 -24 0
73 140 0
-73 -140 0
131 50 0
-131 -50 0
20 121 0
-20 -121 0
64 33 0
-64 -33 0
15 21 0
-15 -21 0
67 119 0
-67 -119 0
45 112 0
-45 -112 0
139 55 0
-139 -55 0
99 33 0
-99 -33 0
119 66 0
-119 -66 0
102 112 0
-102 -112 0
28 62 0
-28 -62 0
29 65 0
-29 -65 0
67 34 0
-67 -34 0
76 113 0
-76 -113 0
115 32 0
-115 -32 0
12 69 0
-12 -69 0
109 75 0
-109 -75 0
60 117 0
-60 -117 0
69 40 0
-69 -40 0
56 112 0
-56 -112 0
51 33 0
-51 -33 0
10 75 0
-10 -75 0
114 133 0
-114 -133 0
61 93 0
-61 -93 0
10 81 0
-10 -81 0
134 78 0
-134 -78 0
83 110 0
-83 -110 0
114 10 0
-114 -10 0
43 75 0
-43 -75 0
61 96 0
-61 -96 0
38 24 0
-38 -24 0
89 92 0
-89 -92 0
65 66 0
-65 -66 0
91 10 0
-91 -10 0
7 13 0
-7 -13 0
64 97 0
-64 -97 0
100 85 0
-100 -85 0
113 50 0
-113 -50 0
112 87 0
-112 -87 0
56 117 0
-56 -117 0
106 74 0
-106 -74 0
1 66 0
-1 -66 0
72 59 0
-72 -59 0
35 19 0
-35 -19 0
108 97 0
-108 -97 0
79 21 0
-79 -21 0
123 62 0
-123 -62 0
133 84 0
-133 -84 0
22 83 0
-22 -83 0
118 95 0
-118 -95 0
5 36 0
-5 -36 0
102 139 0
-102 -139 0
44 95 0
-44 -95 0
14 25 0
-14 -25 0
20 51 0
-20 -51 0
128 140 0
-128 -140 0
126 65 0
-126 -65 0
46 78 0
-46 -78 0
92 85 0
-92 -85 0
9 57 0
-9 -57 0
61 81 0
-61 -81 0
118 49 0
-118 -49 0
77 83 0
-77 -83 0
132 135 0
-132 -135 0
125 9 0
-125 -9 0
129 21 0
-129 -21 0
46 65 0
-46 -65 0
77 10 0
-77 -10 0
52 22 0
-52 -22 0
92 57 0
-92 -57 0
32 14 0
-32 -14 0
28 69 0
-28 -69 0
82 96 0
-82 -96 0
80 97 0
-80 -97 0
2 12 0
-2 -12 0
46 140 0
-46 -140 0
118 96 0
-118 -96 0
1 98 0
-1 -98 0
109 15 0
-109 -15 0
41 120 0
-41 -120 0
27 38 0
-27 -38 0
65 36 0
-65 -36 0
135 59 0
-135 -59 0
46 30 0
-46 -30 0
42 110 0
-42 -110 0
59 106 0
-59 -106 0
111 60 0
-111 -60 0
90 24 0
-90 -24 0
114 85 0
-114 -85 0
91 11 0
-91 -11 0
1 114 0
-1 -114 0
90 100 0
-90 -100 0
127 101 0
-127 -101 0
56 107 0
-56 -107 0
118 109 0
-118 -109 0
28 12 0
-28 -12 0
68 111 0
-68 -111 0
60 99 0
-60 -99 0
47 117 0
-47 -117 0
128 97 0
-128 -97 0
129 136 0
-129 -136 0
107 38 0
-107 -38 0
116 113 0
-116 -113 0
29 47 0
-29 -47 0
1 95 0
-1 -95 0
58 74 0
-58 -74 0
85 24 0
-85 -24 0
9 95 0
-9 -95 0
63 33 0
-63 -33 0
125 111 0
-125 -111 0
28 129 0
-28 -129 0
72 48 0
-72 -48 0
39 55 0
-39 -55 0
108 26 0
-108 -26 0
96 55 0
-96 -55 0
138 50 0
-138 -50 0
134 69 0
-134 -69 0
138 12 0
-138 -12 0
57 97 0
-57 -97 0
44 83 0
-44 -83 0
108 23 0
-108 -23 0
54 23 0
-54 -23 0
63 13 0
-63 -13 0
98 122 0
-98 -122 0
90 49 0
-90 -49 0
49 31 0
-49 -31 0
60 4 0
-60 -4 0
121 24 0
-121 -24 0
68 107 0
-68 -107 0
6 106 0
-6 -106 0
31 97 0
-31 -97 0
14 87 0
-14 -87 0
123 4 0
-123 -4 0
15 55 0
-15 -55 0
92 95 0
-92 -95 0
101 81 0
-101 -81 0
27 25 0
-27 -25 0
129 66 0
-129 -66 0
22 110 0
-22 -110 0
35 108 0
-35 -108 0
99 32 0
-99 -32 0
127 14 0
-127 -14 0
13 9 0
-13 -9 0
138 85 0
-138 -85 0
68 12 0
-68 -12 0
2 115 0
-2 -115 0
127 63 0
-127 -63 0
118 130 0
-118 -130 0
92 41 0
-92 -41 0
135 130 0
-135 -130 0
47 41 0
-47 -41 0
29 74 0
-29 -74 0
115 10 0
-115 -10 0
12 60 0
-12 -60 0
43 100 0
-43 -100 0
35 122 0
-35 -122 0
19 103 0
-19 -103 0
52 140 0
-52 -140 0
7 94 0
-7 -94 0
91 121 0
-91 -121 0
44 79 0
-44 -79 0
31 66 0
-31 -66 0
100 119 0
-100 -119 0
130 69 0
-130 -69 0
15 54 0
-15 -54 0
131 9 0
-131 -9 0
82 38 0
-82 -38 0
81 26 0
-81 -26 0
11 111 0
-11 -111 0
102 9 0
-102 -9 0
93 87 0
-93 -87 0
113 9 0
-113 -9 0
58 136 0
-58 -136 0
40 121 0
-40 -121 0
2 101 0
-2 -101 0
69 100 0
-69 -100 0
133 136 0
-133 -136 0
128 34 0
-128 -34 0
39 102 0
-39 -102 0
18 106 0
-18 -106 0
60 66 0
-60 -66 0
46 59 0
-46 -59 0
93 120 0
-93 -120 0
11 33 0
-11 -33 0
49 4 0
-49 -4 0
62 78 0
-62 -78 0
139 81 0
-139 -81 0
30 80 0
-30 -80 0
7 128 0
-7 -128 0
108 139 0
-108 -139 0
20 50 0
-20 -50 0
126 66 0
-126 -66 0
64 110 0
-64 -110 0
136 20 0
-136 -20 0
53 44 0
-53 -44 0
51 119 0
-51 -119 0
132 69 0
-132 -69 0
59 30 0
-59 -30 0
82 16 0
-82 -16 0
94 79 0
-94 -79 0
102 10 0
-102 -10 0
95 100 0
-95 -100 0
123 37 0
-123 -37 0
39 33 0
-39 -33 0
96 20 0
-96 -20 0
62 87 0
-62 -87 0
123 73 0
-123 -73 0
12 4 0
-12 -4 0
126 71 0
-126 -71 0
51 21 0
-51 -21 0
73 89 0
-73 -89 0
105 115 0
-105 -115 0
86 14 0
-86 -14 0
43 6 0
-43 -6 0
108 55 0
-108 -55 0
116 47 0
-116 -47 0
49 114 0
-49 -114 0
125 107 0
-125 -107 0
79 51 0
-79 -51 0
29 95 0
-29 -95 0
71 78 0
-71 -78 0
88 3 0
-88 -3 0
91 14 0
-91 -14 0
137 106 0
-137 -106 0
139 121 0
-139 -121 0
71 79 0
-71 -79 0
49 15 0
-49 -15 0
22 133 0
-22 -133 0
42 84 0
-42 -84 0
90 86 0
-90 -86 0
135 74 0
-135 -74 0
102 36 0
-102 -36 0
62 80 0
-62 -80 0
88 122 0
-88 -122 0
90 126 0
-90 -126 0
7 23 0
-7 -23 0
134 18 0
-134 -18 0
42 119 0
-42 -119 0
12 22 0
-12 -22 0
134 40 0
-134 -40 0
37 101 0
-37 -101 0
22 38 0
-22 -38 0
29 64 0
-29 -64 0
103 51 0
-103 -51 0
53 127 0
-53 -127 0
72 51 0
-72 -51 0
107 130 0
-107 -130 0
113 81 0
-113 -81 0
97 75 0
-97 -75 0
82 50 0
-82 -50 0
137 38 0
-137 -38 0
116 121 0
-116 -121 0
134 87 0
-134 -87 0
32 69 0
-32 -69 0
92 81 0
-92 -81 0
94 53 0
-94 -53 0
22 75 0
-22 -75 0
68 122 0
-68 -122 0
138 43 0
-138 -43 0
28 120 0
-28 -120 0
60 33 0
-60 -33 0
8 16 0
-8 -16 0
52 124 0
-52 -124 0
90 41 0
-90 -41 0
101 100 0
-101 -100 0
126 113 0
-126 -113 0
73 108 0
-73 -108 0
132 96 0
-132 -96 0
